nNurses = 161;
nHours = 34;
minHours = 10;
maxHours = 17;
maxConsec = 7;
maxPresence = 26;
demand = [6, 11, 12, 7, 7, 12, 12, 15, 19, 16, 20, 17, 19, 24, 25, 26, 26, 23, 26, 29, 30, 35, 34, 30, 31, 28, 29, 33, 34, 34, 37, 37, 38, 39];
